UART/model/design_smt2.smt2
; SMT-LIBv2 description generated by Yosys 0.48+45 (git sha1 8acc77c1e, g++ 11.4.0-1ubuntu1~22.04 -fPIC -O3)
; yosys-smt2-module UART_rx
(declare-sort |UART_rx_s| 0)
(declare-fun |UART_rx_is| (|UART_rx_s|) Bool)
; yosys-smt2-witness {"offset": 0, "path": ["$auto$async2sync.cc:228:execute$280"], "smtname": 0, "smtoffset": 0, "type": "reg", "width": 2}
(declare-fun |UART_rx#0| (|UART_rx_s|) (_ BitVec 2)) ; $auto$async2sync.cc:228:execute$280
(declare-fun |UART_rx#1| (|UART_rx_s|) (_ BitVec 1)) ; \rst
(define-fun |UART_rx#2| ((state |UART_rx_s|)) (_ BitVec 2) (ite (= ((_ extract 0 0) (|UART_rx#1| state)) #b1) #b00 (|UART_rx#0| state))) ; \stateReg
; yosys-smt2-wire stateReg 2
(define-fun |UART_rx_n stateReg| ((state |UART_rx_s|)) (_ BitVec 2) (|UART_rx#2| state))
; yosys-smt2-anyseq UART_rx#3 1 $auto$setundef.cc:533:execute$357
; yosys-smt2-witness {"offset": 0, "path": ["\\_witness_", "\\anyseq_auto_setundef_cc_533_execute_357"], "smtname": 3, "smtoffset": 0, "type": "seq", "width": 1}
(declare-fun |UART_rx#3| (|UART_rx_s|) (_ BitVec 1)) ; \_witness_.anyseq_auto_setundef_cc_533_execute_357
; yosys-smt2-witness {"offset": 0, "path": ["$auto$async2sync.cc:228:execute$274"], "smtname": 4, "smtoffset": 0, "type": "reg", "width": 4}
(declare-fun |UART_rx#4| (|UART_rx_s|) (_ BitVec 4)) ; $auto$async2sync.cc:228:execute$274
(define-fun |UART_rx#5| ((state |UART_rx_s|)) (_ BitVec 4) (ite (= ((_ extract 0 0) (|UART_rx#1| state)) #b1) #b0000 (|UART_rx#4| state))) ; \countingReg
(define-fun |UART_rx#6| ((state |UART_rx_s|)) Bool (= (|UART_rx#5| state) #b1111)) ; $eq$UART_rx.v:119$14_Y
(define-fun |UART_rx#7| ((state |UART_rx_s|)) (_ BitVec 1) (ite (|UART_rx#6| state) #b1 #b0)) ; $3\rx_done[0:0]
; yosys-smt2-anyinit UART_rx#8 1 UART_rx.v:29.1-38.4
; yosys-smt2-witness {"offset": 0, "path": ["\\_witness_", "\\anyinit_procdff_259"], "smtname": 8, "smtoffset": 0, "type": "init", "width": 1}
(declare-fun |UART_rx#8| (|UART_rx_s|) (_ BitVec 1)) ; \_witness_.anyinit_procdff_259
(define-fun |UART_rx#9| ((state |UART_rx_s|)) (_ BitVec 1) (ite (= ((_ extract 0 0) (|UART_rx#1| state)) #b1) #b0 (|UART_rx#8| state))) ; \clkWire
(define-fun |UART_rx#10| ((state |UART_rx_s|)) (_ BitVec 1) (ite (= ((_ extract 0 0) (|UART_rx#9| state)) #b1) (|UART_rx#7| state) #b0)) ; $2\rx_done[0:0]
(define-fun |UART_rx#11| ((state |UART_rx_s|)) Bool (= (|UART_rx#2| state) #b10)) ; $procmux$221_CMP
(define-fun |UART_rx#12| ((state |UART_rx_s|)) Bool (= (|UART_rx#2| state) #b11)) ; $eq$UART_rx.v:169$22_Y
(define-fun |UART_rx#13| ((state |UART_rx_s|)) Bool (= (|UART_rx#2| state) #b01)) ; $procmux$162_CMP
(define-fun |UART_rx#14| ((state |UART_rx_s|)) Bool (not (or  (= ((_ extract 0 0) (|UART_rx#2| state)) #b1) (= ((_ extract 1 1) (|UART_rx#2| state)) #b1)))) ; $procmux$211_CMP
(define-fun |UART_rx#15| ((state |UART_rx_s|)) Bool (or  (|UART_rx#12| state) (|UART_rx#13| state) (|UART_rx#14| state))) ; $auto$opt_reduce.cc:137:opt_pmux$268
(define-fun |UART_rx#16| ((state |UART_rx_s|)) (_ BitVec 1) (ite (|UART_rx#15| state) #b0 (ite (|UART_rx#11| state) (|UART_rx#10| state) (|UART_rx#3| state)))) ; \rx_done
; yosys-smt2-output rx_done 1
; yosys-smt2-wire rx_done 1
(define-fun |UART_rx_n rx_done| ((state |UART_rx_s|)) Bool (= ((_ extract 0 0) (|UART_rx#16| state)) #b1))
(declare-fun |UART_rx#17| (|UART_rx_s|) Bool) ; \rx
; yosys-smt2-input rx 1
; yosys-smt2-wire rx 1
; yosys-smt2-witness {"offset": 0, "path": ["\\rx"], "smtname": "rx", "smtoffset": 0, "type": "input", "width": 1}
(define-fun |UART_rx_n rx| ((state |UART_rx_s|)) Bool (|UART_rx#17| state))
; yosys-smt2-input rst 1
; yosys-smt2-wire rst 1
; yosys-smt2-witness {"offset": 0, "path": ["\\rst"], "smtname": "rst", "smtoffset": 0, "type": "input", "width": 1}
(define-fun |UART_rx_n rst| ((state |UART_rx_s|)) Bool (= ((_ extract 0 0) (|UART_rx#1| state)) #b1))
; yosys-smt2-witness {"offset": 0, "path": ["$auto$async2sync.cc:228:execute$278"], "smtname": 18, "smtoffset": 0, "type": "reg", "width": 8}
(declare-fun |UART_rx#18| (|UART_rx_s|) (_ BitVec 8)) ; $auto$async2sync.cc:228:execute$278
(define-fun |UART_rx#19| ((state |UART_rx_s|)) (_ BitVec 8) (ite (= ((_ extract 0 0) (|UART_rx#1| state)) #b1) #b00000000 (|UART_rx#18| state))) ; \dataReg
; yosys-smt2-output readval 8
; yosys-smt2-wire readval 8
(define-fun |UART_rx_n readval| ((state |UART_rx_s|)) (_ BitVec 8) (|UART_rx#19| state))
; yosys-smt2-anyseq UART_rx#20 2 $auto$setundef.cc:533:execute$351
; yosys-smt2-witness {"offset": 0, "path": ["\\_witness_", "\\anyseq_auto_setundef_cc_533_execute_351"], "smtname": 20, "smtoffset": 0, "type": "seq", "width": 2}
(declare-fun |UART_rx#20| (|UART_rx_s|) (_ BitVec 2)) ; \_witness_.anyseq_auto_setundef_cc_533_execute_351
(define-fun |UART_rx#21| ((state |UART_rx_s|)) (_ BitVec 2) (ite (|UART_rx#6| state) #b00 (|UART_rx#2| state))) ; $9\nextStateReg[1:0]
(define-fun |UART_rx#22| ((state |UART_rx_s|)) (_ BitVec 2) (ite (= ((_ extract 0 0) (|UART_rx#9| state)) #b1) (|UART_rx#21| state) (|UART_rx#2| state))) ; $8\nextStateReg[1:0]
; yosys-smt2-anyinit UART_rx#23 4 UART_rx.v:60.1-78.4
; yosys-smt2-witness {"offset": 0, "path": ["\\_witness_", "\\anyinit_procdff_253"], "smtname": 23, "smtoffset": 0, "type": "init", "width": 4}
(declare-fun |UART_rx#23| (|UART_rx_s|) (_ BitVec 4)) ; \_witness_.anyinit_procdff_253
(define-fun |UART_rx#24| ((state |UART_rx_s|)) (_ BitVec 4) (ite (= ((_ extract 0 0) (|UART_rx#1| state)) #b1) #b0000 (|UART_rx#23| state))) ; \dataRegSize
(define-fun |UART_rx#25| ((state |UART_rx_s|)) Bool (= (|UART_rx#24| state) #b1000)) ; $eq$UART_rx.v:122$15_Y
(define-fun |UART_rx#26| ((state |UART_rx_s|)) (_ BitVec 2) (ite (|UART_rx#25| state) #b10 (|UART_rx#2| state))) ; $7\nextStateReg[1:0]
(define-fun |UART_rx#27| ((state |UART_rx_s|)) (_ BitVec 2) (ite (|UART_rx#6| state) (|UART_rx#26| state) (|UART_rx#2| state))) ; $6\nextStateReg[1:0]
(define-fun |UART_rx#28| ((state |UART_rx_s|)) (_ BitVec 2) (ite (= ((_ extract 0 0) (|UART_rx#9| state)) #b1) (|UART_rx#27| state) (|UART_rx#2| state))) ; $5\nextStateReg[1:0]
(define-fun |UART_rx#29| ((state |UART_rx_s|)) Bool (= (|UART_rx#5| state) #b0111)) ; $eq$UART_rx.v:104$12_Y
(define-fun |UART_rx#30| ((state |UART_rx_s|)) (_ BitVec 2) (ite (|UART_rx#29| state) #b11 (|UART_rx#2| state))) ; $4\nextStateReg[1:0]
(define-fun |UART_rx#31| ((state |UART_rx_s|)) (_ BitVec 2) (ite (= ((_ extract 0 0) (|UART_rx#9| state)) #b1) (|UART_rx#30| state) (|UART_rx#2| state))) ; $3\nextStateReg[1:0]
(define-fun |UART_rx#32| ((state |UART_rx_s|)) (_ BitVec 2) (ite (|UART_rx#17| state) (|UART_rx#2| state) #b01)) ; $2\nextStateReg[1:0]
(define-fun |UART_rx#33| ((state |UART_rx_s|)) (_ BitVec 2) (ite (|UART_rx#14| state) (|UART_rx#32| state) (ite (|UART_rx#13| state) (|UART_rx#31| state) (ite (|UART_rx#12| state) (|UART_rx#28| state) (ite (|UART_rx#11| state) (|UART_rx#22| state) (|UART_rx#20| state)))))) ; \nextStateReg
; yosys-smt2-wire nextStateReg 2
(define-fun |UART_rx_n nextStateReg| ((state |UART_rx_s|)) (_ BitVec 2) (|UART_rx#33| state))
; yosys-smt2-anyseq UART_rx#34 4 $auto$setundef.cc:533:execute$353
; yosys-smt2-witness {"offset": 0, "path": ["\\_witness_", "\\anyseq_auto_setundef_cc_533_execute_353"], "smtname": 34, "smtoffset": 0, "type": "seq", "width": 4}
(declare-fun |UART_rx#34| (|UART_rx_s|) (_ BitVec 4)) ; \_witness_.anyseq_auto_setundef_cc_533_execute_353
(define-fun |UART_rx#35| ((state |UART_rx_s|)) (_ BitVec 4) (bvadd (|UART_rx#24| state) #b0001)) ; $add$UART_rx.v:126$16_Y [3:0]
(define-fun |UART_rx#36| ((state |UART_rx_s|)) (_ BitVec 4) (ite (|UART_rx#25| state) (|UART_rx#24| state) (|UART_rx#35| state))) ; $6\nextDataRegSize[3:0]
(define-fun |UART_rx#37| ((state |UART_rx_s|)) (_ BitVec 4) (ite (|UART_rx#6| state) (|UART_rx#36| state) (|UART_rx#24| state))) ; $5\nextDataRegSize[3:0]
(define-fun |UART_rx#38| ((state |UART_rx_s|)) (_ BitVec 4) (ite (= ((_ extract 0 0) (|UART_rx#9| state)) #b1) (|UART_rx#37| state) (|UART_rx#24| state))) ; $4\nextDataRegSize[3:0]
(define-fun |UART_rx#39| ((state |UART_rx_s|)) (_ BitVec 4) (ite (|UART_rx#29| state) #b0000 (|UART_rx#24| state))) ; $3\nextDataRegSize[3:0]
(define-fun |UART_rx#40| ((state |UART_rx_s|)) (_ BitVec 4) (ite (= ((_ extract 0 0) (|UART_rx#9| state)) #b1) (|UART_rx#39| state) (|UART_rx#24| state))) ; $2\nextDataRegSize[3:0]
(define-fun |UART_rx#41| ((state |UART_rx_s|)) Bool (or  (|UART_rx#14| state) (|UART_rx#11| state))) ; $auto$opt_reduce.cc:137:opt_pmux$264
(define-fun |UART_rx#42| ((state |UART_rx_s|)) (_ BitVec 4) (ite (|UART_rx#13| state) (|UART_rx#40| state) (ite (|UART_rx#12| state) (|UART_rx#38| state) (ite (|UART_rx#41| state) (|UART_rx#24| state) (|UART_rx#34| state))))) ; \nextDataRegSize
; yosys-smt2-wire nextDataRegSize 4
(define-fun |UART_rx_n nextDataRegSize| ((state |UART_rx_s|)) (_ BitVec 4) (|UART_rx#42| state))
; yosys-smt2-anyseq UART_rx#43 8 $auto$setundef.cc:533:execute$355
; yosys-smt2-witness {"offset": 0, "path": ["\\_witness_", "\\anyseq_auto_setundef_cc_533_execute_355"], "smtname": 43, "smtoffset": 0, "type": "seq", "width": 8}
(declare-fun |UART_rx#43| (|UART_rx_s|) (_ BitVec 8)) ; \_witness_.anyseq_auto_setundef_cc_533_execute_355
(define-fun |UART_rx#44| ((state |UART_rx_s|)) (_ BitVec 8) (ite (|UART_rx#6| state) (concat (ite (|UART_rx#17| state) #b1 #b0) ((_ extract 7 1) (|UART_rx#19| state))) (|UART_rx#19| state))) ; $3\nextDataReg[7:0]
(define-fun |UART_rx#45| ((state |UART_rx_s|)) (_ BitVec 8) (ite (= ((_ extract 0 0) (|UART_rx#9| state)) #b1) (|UART_rx#44| state) (|UART_rx#19| state))) ; $2\nextDataReg[7:0]
(define-fun |UART_rx#46| ((state |UART_rx_s|)) Bool (or  (|UART_rx#13| state) (|UART_rx#14| state) (|UART_rx#11| state))) ; $auto$opt_reduce.cc:137:opt_pmux$266
(define-fun |UART_rx#47| ((state |UART_rx_s|)) (_ BitVec 8) (ite (|UART_rx#12| state) (|UART_rx#45| state) (ite (|UART_rx#46| state) (|UART_rx#19| state) (|UART_rx#43| state)))) ; \nextDataReg
; yosys-smt2-wire nextDataReg 8
(define-fun |UART_rx_n nextDataReg| ((state |UART_rx_s|)) (_ BitVec 8) (|UART_rx#47| state))
; yosys-smt2-anyseq UART_rx#48 4 $auto$setundef.cc:533:execute$349
; yosys-smt2-witness {"offset": 0, "path": ["\\_witness_", "\\anyseq_auto_setundef_cc_533_execute_349"], "smtname": 48, "smtoffset": 0, "type": "seq", "width": 4}
(declare-fun |UART_rx#48| (|UART_rx_s|) (_ BitVec 4)) ; \_witness_.anyseq_auto_setundef_cc_533_execute_349
(define-fun |UART_rx#49| ((state |UART_rx_s|)) (_ BitVec 4) (bvadd (|UART_rx#5| state) #b0001)) ; $add$UART_rx.v:112$13_Y
(define-fun |UART_rx#50| ((state |UART_rx_s|)) (_ BitVec 4) (ite (|UART_rx#6| state) (|UART_rx#5| state) (|UART_rx#49| state))) ; $8\nextCountingReg[3:0]
(define-fun |UART_rx#51| ((state |UART_rx_s|)) (_ BitVec 4) (ite (= ((_ extract 0 0) (|UART_rx#9| state)) #b1) (|UART_rx#50| state) (|UART_rx#5| state))) ; $7\nextCountingReg[3:0]
(define-fun |UART_rx#52| ((state |UART_rx_s|)) (_ BitVec 4) (ite (|UART_rx#6| state) #b0000 (|UART_rx#49| state))) ; $6\nextCountingReg[3:0]
(define-fun |UART_rx#53| ((state |UART_rx_s|)) (_ BitVec 4) (ite (= ((_ extract 0 0) (|UART_rx#9| state)) #b1) (|UART_rx#52| state) (|UART_rx#5| state))) ; $5\nextCountingReg[3:0]
(define-fun |UART_rx#54| ((state |UART_rx_s|)) (_ BitVec 4) (ite (|UART_rx#29| state) #b0000 (|UART_rx#49| state))) ; $4\nextCountingReg[3:0]
(define-fun |UART_rx#55| ((state |UART_rx_s|)) (_ BitVec 4) (ite (= ((_ extract 0 0) (|UART_rx#9| state)) #b1) (|UART_rx#54| state) (|UART_rx#5| state))) ; $3\nextCountingReg[3:0]
(define-fun |UART_rx#56| ((state |UART_rx_s|)) (_ BitVec 4) (ite (|UART_rx#17| state) (|UART_rx#5| state) #b0000)) ; $2\nextCountingReg[3:0]
(define-fun |UART_rx#57| ((state |UART_rx_s|)) (_ BitVec 4) (ite (|UART_rx#14| state) (|UART_rx#56| state) (ite (|UART_rx#13| state) (|UART_rx#55| state) (ite (|UART_rx#12| state) (|UART_rx#53| state) (ite (|UART_rx#11| state) (|UART_rx#51| state) (|UART_rx#48| state)))))) ; \nextCountingReg
; yosys-smt2-wire nextCountingReg 4
(define-fun |UART_rx_n nextCountingReg| ((state |UART_rx_s|)) (_ BitVec 4) (|UART_rx#57| state))
; yosys-smt2-wire en 1
(define-fun |UART_rx_n en| ((state |UART_rx_s|)) Bool (= ((_ extract 0 0) (|UART_rx#9| state)) #b1))
; yosys-smt2-wire dataRegSize 4
(define-fun |UART_rx_n dataRegSize| ((state |UART_rx_s|)) (_ BitVec 4) (|UART_rx#24| state))
; yosys-smt2-wire dataReg 8
(define-fun |UART_rx_n dataReg| ((state |UART_rx_s|)) (_ BitVec 8) (|UART_rx#19| state))
; yosys-smt2-wire countingReg 4
(define-fun |UART_rx_n countingReg| ((state |UART_rx_s|)) (_ BitVec 4) (|UART_rx#5| state))
; yosys-smt2-anyinit UART_rx#58 33 UART_rx.v:29.1-38.4
; yosys-smt2-witness {"offset": 0, "path": ["\\_witness_", "\\anyinit_procdff_262"], "smtname": 58, "smtoffset": 0, "type": "init", "width": 33}
(declare-fun |UART_rx#58| (|UART_rx_s|) (_ BitVec 33)) ; \_witness_.anyinit_procdff_262
(define-fun |UART_rx#59| ((state |UART_rx_s|)) (_ BitVec 33) (ite (= ((_ extract 0 0) (|UART_rx#1| state)) #b1) #b000000000000000000000000000000000 (|UART_rx#58| state))) ; \counter
(define-fun |UART_rx#60| ((state |UART_rx_s|)) (_ BitVec 33) (bvadd (|UART_rx#59| state) #b000000000000000000000000000000001)) ; $add$UART_rx.v:40$6_Y
(define-fun |UART_rx#61| ((state |UART_rx_s|)) Bool (= (|UART_rx#59| state) #b000000000000000000000000010100011)) ; $eq$UART_rx.v:40$5_Y
(define-fun |UART_rx#62| ((state |UART_rx_s|)) (_ BitVec 33) (ite (|UART_rx#61| state) #b000000000000000000000000000000000 (|UART_rx#60| state))) ; \counter_next
; yosys-smt2-wire counter_next 33
(define-fun |UART_rx_n counter_next| ((state |UART_rx_s|)) (_ BitVec 33) (|UART_rx#62| state))
; yosys-smt2-wire counter 33
(define-fun |UART_rx_n counter| ((state |UART_rx_s|)) (_ BitVec 33) (|UART_rx#59| state))
; yosys-smt2-wire clkWire 1
(define-fun |UART_rx_n clkWire| ((state |UART_rx_s|)) Bool (= ((_ extract 0 0) (|UART_rx#9| state)) #b1))
(declare-fun |UART_rx#63| (|UART_rx_s|) Bool) ; \clk
; yosys-smt2-input clk 1
; yosys-smt2-wire clk 1
; yosys-smt2-clock clk posedge
; yosys-smt2-witness {"offset": 0, "path": ["\\clk"], "smtname": "clk", "smtoffset": 0, "type": "posedge", "width": 1}
; yosys-smt2-witness {"offset": 0, "path": ["\\clk"], "smtname": "clk", "smtoffset": 0, "type": "input", "width": 1}
(define-fun |UART_rx_n clk| ((state |UART_rx_s|)) Bool (|UART_rx#63| state))
; yosys-smt2-wire _witness_.anyseq_auto_setundef_cc_533_execute_357 1
(define-fun |UART_rx_n _witness_.anyseq_auto_setundef_cc_533_execute_357| ((state |UART_rx_s|)) Bool (= ((_ extract 0 0) (|UART_rx#3| state)) #b1))
; yosys-smt2-wire _witness_.anyseq_auto_setundef_cc_533_execute_355 8
(define-fun |UART_rx_n _witness_.anyseq_auto_setundef_cc_533_execute_355| ((state |UART_rx_s|)) (_ BitVec 8) (|UART_rx#43| state))
; yosys-smt2-wire _witness_.anyseq_auto_setundef_cc_533_execute_353 4
(define-fun |UART_rx_n _witness_.anyseq_auto_setundef_cc_533_execute_353| ((state |UART_rx_s|)) (_ BitVec 4) (|UART_rx#34| state))
; yosys-smt2-wire _witness_.anyseq_auto_setundef_cc_533_execute_351 2
(define-fun |UART_rx_n _witness_.anyseq_auto_setundef_cc_533_execute_351| ((state |UART_rx_s|)) (_ BitVec 2) (|UART_rx#20| state))
; yosys-smt2-wire _witness_.anyseq_auto_setundef_cc_533_execute_349 4
(define-fun |UART_rx_n _witness_.anyseq_auto_setundef_cc_533_execute_349| ((state |UART_rx_s|)) (_ BitVec 4) (|UART_rx#48| state))
; yosys-smt2-register _witness_.anyinit_procdff_262 33
; yosys-smt2-wire _witness_.anyinit_procdff_262 33
(define-fun |UART_rx_n _witness_.anyinit_procdff_262| ((state |UART_rx_s|)) (_ BitVec 33) (|UART_rx#58| state))
; yosys-smt2-register _witness_.anyinit_procdff_259 1
; yosys-smt2-wire _witness_.anyinit_procdff_259 1
(define-fun |UART_rx_n _witness_.anyinit_procdff_259| ((state |UART_rx_s|)) Bool (= ((_ extract 0 0) (|UART_rx#8| state)) #b1))
; yosys-smt2-register _witness_.anyinit_procdff_253 4
; yosys-smt2-wire _witness_.anyinit_procdff_253 4
(define-fun |UART_rx_n _witness_.anyinit_procdff_253| ((state |UART_rx_s|)) (_ BitVec 4) (|UART_rx#23| state))
; yosys-smt2-register $auto$async2sync.cc:228:execute$280 2
(define-fun |UART_rx_n $auto$async2sync.cc:228:execute$280| ((state |UART_rx_s|)) (_ BitVec 2) (|UART_rx#0| state))
; yosys-smt2-register $auto$async2sync.cc:228:execute$278 8
(define-fun |UART_rx_n $auto$async2sync.cc:228:execute$278| ((state |UART_rx_s|)) (_ BitVec 8) (|UART_rx#18| state))
; yosys-smt2-register $auto$async2sync.cc:228:execute$274 4
(define-fun |UART_rx_n $auto$async2sync.cc:228:execute$274| ((state |UART_rx_s|)) (_ BitVec 4) (|UART_rx#4| state))
(define-fun |UART_rx#64| ((state |UART_rx_s|)) (_ BitVec 1) (bvnot (ite (|UART_rx#63| state) #b1 #b0))) ; $auto$rtlil.cc:2739:Not$360
; yosys-smt2-assume 0 $auto$formalff.cc:758:execute$361
(define-fun |UART_rx_u 0| ((state |UART_rx_s|)) Bool (or (= ((_ extract 0 0) (|UART_rx#64| state)) #b1) (not true))) ; $auto$formalff.cc:758:execute$361
; yosys-smt2-cover 0 _witness_.check_cover_UART_rx_v_169_21 UART_rx.v:169.3-169.26
(define-fun |UART_rx_c 0| ((state |UART_rx_s|)) Bool (and (|UART_rx#12| state) true)) ; _witness_.check_cover_UART_rx_v_169_21
(define-fun |UART_rx#65| ((state |UART_rx_s|)) (_ BitVec 33) (ite (= ((_ extract 0 0) (|UART_rx#1| state)) #b1) #b000000000000000000000000000000000 (|UART_rx#62| state))) ; $auto$rtlil.cc:2874:Mux$296
(define-fun |UART_rx#66| ((state |UART_rx_s|)) (_ BitVec 4) (ite (= ((_ extract 0 0) (|UART_rx#1| state)) #b1) #b0000 (|UART_rx#42| state))) ; $auto$rtlil.cc:2874:Mux$290
(define-fun |UART_rx#67| ((state |UART_rx_s|)) (_ BitVec 8) (ite (= ((_ extract 0 0) (|UART_rx#1| state)) #b1) #b00000000 (|UART_rx#47| state))) ; $auto$rtlil.cc:2874:Mux$288
(define-fun |UART_rx#68| ((state |UART_rx_s|)) Bool (= (|UART_rx#59| state) #b000000000000000000000000010100010)) ; $eq$UART_rx.v:36$3_Y
(define-fun |UART_rx#69| ((state |UART_rx_s|)) (_ BitVec 1) (ite (|UART_rx#68| state) #b1 #b0)) ; $0\clkWire[0:0]
(define-fun |UART_rx#70| ((state |UART_rx_s|)) (_ BitVec 1) (ite (= ((_ extract 0 0) (|UART_rx#1| state)) #b1) #b0 (|UART_rx#69| state))) ; $auto$rtlil.cc:2874:Mux$294
(define-fun |UART_rx#71| ((state |UART_rx_s|)) (_ BitVec 4) (ite (= ((_ extract 0 0) (|UART_rx#1| state)) #b1) #b0000 (|UART_rx#57| state))) ; $auto$rtlil.cc:2874:Mux$292
(define-fun |UART_rx#72| ((state |UART_rx_s|)) (_ BitVec 2) (ite (= ((_ extract 0 0) (|UART_rx#1| state)) #b1) #b00 (|UART_rx#33| state))) ; $auto$rtlil.cc:2874:Mux$286
(define-fun |UART_rx_a| ((state |UART_rx_s|)) Bool true)
(define-fun |UART_rx_u| ((state |UART_rx_s|)) Bool 
  (|UART_rx_u 0| state)
)
(define-fun |UART_rx_i| ((state |UART_rx_s|)) Bool (and
  (= (|UART_rx#0| state) #b01) ; $auto$async2sync.cc:228:execute$280
  (= (|UART_rx#18| state) #b00000000) ; $auto$async2sync.cc:228:execute$278
  (= (|UART_rx#4| state) #b0000) ; $auto$async2sync.cc:228:execute$274
))
(define-fun |UART_rx_h| ((state |UART_rx_s|)) Bool true)
(define-fun |UART_rx_t| ((state |UART_rx_s|) (next_state |UART_rx_s|)) Bool (and
  (= (|UART_rx#65| state) (|UART_rx#58| next_state)) ; $procdff$262 \_witness_.anyinit_procdff_262
  (= (|UART_rx#66| state) (|UART_rx#23| next_state)) ; $procdff$253 \_witness_.anyinit_procdff_253
  (= (|UART_rx#67| state) (|UART_rx#18| next_state)) ; $procdff$250 $auto$async2sync.cc:228:execute$278
  (= (|UART_rx#70| state) (|UART_rx#8| next_state)) ; $procdff$259 \_witness_.anyinit_procdff_259
  (= (|UART_rx#71| state) (|UART_rx#4| next_state)) ; $procdff$256 $auto$async2sync.cc:228:execute$274
  (= (|UART_rx#72| state) (|UART_rx#0| next_state)) ; $procdff$247 $auto$async2sync.cc:228:execute$280
)) ; end of module UART_rx
; yosys-smt2-topmod UART_rx
; end of yosys output
